SDVRP instances/p01/p01_3070_tsplib0_splitx10_0.vrp
NAME:.\SDVRP_splitx10_
BEST_KNOWN: 0
COMMENT: 0
DIMENSION: 292
CAPACITY: 1600
EDGE_WEIGHT_FORMAT: FUNCTION
EDGE_WEIGHT_TYPE: EXACT_2D
NODE_COORD_SECTION
1 0.00000 0.00000
2 7 12
3 7 12
4 7 12
5 7 12
6 7 12
7 7 12
8 7 12
9 19 9
10 19 9
11 19 9
12 19 9
13 22 24
14 22 24
15 22 24
16 22 24
17 22 24
18 22 24
19 22 24
20 -10 -14
21 -10 -14
22 -10 -14
23 -10 -14
24 -10 -14
25 10 -10
26 10 -10
27 10 -10
28 10 -10
29 10 -10
30 10 -10
31 -9 7
32 -9 7
33 -9 7
34 -9 7
35 -9 7
36 -9 7
37 -9 7
38 -9 7
39 -13 23
40 -13 23
41 -13 23
42 -13 23
43 -13 23
44 -13 23
45 -13 23
46 -13 23
47 1 22
48 1 22
49 1 22
50 1 22
51 1 22
52 1 22
53 1 22
54 22 -7
55 22 -7
56 22 -7
57 22 -7
58 22 -7
59 22 -7
60 22 -7
61 21 -19
62 21 -19
63 21 -19
64 21 -19
65 12 1
66 12 1
67 12 1
68 12 1
69 12 1
70 1 -8
71 1 -8
72 1 -8
73 1 -8
74 -25 -15
75 -25 -15
76 -25 -15
77 -25 -15
78 -25 -15
79 -25 -15
80 -25 -15
81 -18 2
82 -18 2
83 -18 2
84 -18 2
85 6 -24
86 6 -24
87 6 -24
88 6 -24
89 6 -24
90 6 -24
91 6 -24
92 22 1
93 22 1
94 22 1
95 22 1
96 -3 -17
97 -3 -17
98 -3 -17
99 -3 -17
100 -3 -17
101 -3 -17
102 -13 -7
103 -13 -7
104 -13 -7
105 -17 -27
106 -17 -27
107 -17 -27
108 -17 -27
109 -17 -27
110 -17 -27
111 -17 -27
112 27 18
113 27 18
114 27 18
115 27 18
116 27 18
117 32 2
118 32 2
119 32 2
120 32 2
121 32 2
122 32 2
123 12 17
124 12 17
125 12 17
126 12 17
127 -14 17
128 -14 17
129 -14 17
130 -14 17
131 -14 17
132 -22 12
133 -22 12
134 -22 12
135 -22 12
136 -22 12
137 -22 12
138 -22 12
139 -23 -2
140 -23 -2
141 -23 -2
142 -23 -2
143 -23 -2
144 -3 28
145 -3 28
146 -3 28
147 -3 28
148 -3 28
149 -3 28
150 -3 28
151 -3 28
152 0 8
153 0 8
154 0 8
155 0 8
156 13 27
157 13 27
158 13 27
159 13 27
160 28 8
161 28 8
162 28 8
163 28 8
164 28 -13
165 28 -13
166 28 -13
167 28 -13
168 28 -13
169 28 -13
170 7 29
171 7 29
172 7 29
173 7 29
174 7 29
175 7 29
176 7 29
177 8 6
178 8 6
179 8 6
180 8 6
181 8 6
182 16 -30
183 16 -30
184 16 -30
185 16 -30
186 16 -30
187 16 -30
188 16 -30
189 31 -7
190 31 -7
191 31 -7
192 31 -7
193 31 -7
194 31 -7
195 31 -7
196 32 23
197 32 23
198 32 23
199 32 23
200 32 23
201 32 23
202 32 23
203 33 29
204 33 29
205 33 29
206 33 29
207 33 29
208 33 29
209 33 29
210 2 -18
211 2 -18
212 2 -18
213 2 -18
214 15 -5
215 15 -5
216 15 -5
217 15 -5
218 15 -5
219 15 -5
220 15 -5
221 29 -25
222 29 -25
223 29 -25
224 29 -25
225 29 -25
226 29 -25
227 29 -25
228 29 -25
229 -25 -34
230 -25 -34
231 -25 -34
232 -25 -34
233 -25 -34
234 -25 -34
235 -25 -34
236 -20 -23
237 -20 -23
238 -20 -23
239 -20 -23
240 -20 -23
241 -20 -23
242 -9 -30
243 -9 -30
244 -9 -30
245 -9 -30
246 -9 -30
247 -25 24
248 -25 24
249 -25 24
250 -25 24
251 0 -25
252 0 -25
253 0 -25
254 0 -25
255 0 -25
256 0 -25
257 9 -30
258 9 -30
259 9 -30
260 9 -30
261 2 -1
262 2 -1
263 2 -1
264 2 -1
265 -5 -8
266 -5 -8
267 -5 -8
268 -5 -8
269 -5 -8
270 -5 -8
271 -5 -8
272 -5 -8
273 -5 15
274 -5 15
275 -5 15
276 -5 15
277 -5 15
278 18 -12
279 18 -12
280 18 -12
281 18 -12
282 18 -12
283 18 -12
284 18 -12
285 26 -3
286 26 -3
287 26 -3
288 26 -3
289 26 -3
290 26 -3
291 26 -3
292 26 -3
DEMAND_SECTION
1 0
2 320
3 320
4 320
5 16
6 16
7 16
8 12
9 320
10 320
11 80
12 10
13 320
14 160
15 80
16 16
17 16
18 16
19 12
20 320
21 320
22 160
23 16
24 14
25 320
26 320
27 320
28 80
29 16
30 4
31 320
32 320
33 320
34 16
35 16
36 16
37 16
38 6
39 320
40 320
41 80
42 16
43 16
44 16
45 16
46 6
47 320
48 160
49 16
50 16
51 16
52 16
53 6
54 320
55 160
56 80
57 16
58 16
59 16
60 2
61 320
62 160
63 16
64 4
65 320
66 320
67 320
68 16
69 14
70 320
71 320
72 80
73 10
74 320
75 320
76 80
77 16
78 16
79 16
80 2
81 320
82 320
83 160
84 10
85 320
86 320
87 160
88 80
89 16
90 16
91 8
92 320
93 320
94 16
95 14
96 320
97 160
98 16
99 16
100 16
101 2
102 320
103 320
104 160
105 320
106 320
107 320
108 16
109 16
110 16
111 12
112 320
113 320
114 160
115 16
116 4
117 320
118 160
119 16
120 16
121 16
122 12
123 320
124 320
125 160
126 80
127 320
128 320
129 160
130 80
131 10
132 320
133 320
134 160
135 16
136 16
137 16
138 2
139 320
140 320
141 320
142 16
143 4
144 320
145 320
146 160
147 80
148 16
149 16
150 16
151 12
152 320
153 160
154 16
155 4
156 320
157 320
158 320
159 10
160 320
161 160
162 80
163 10
164 320
165 160
166 16
167 16
168 16
169 12
170 320
171 320
172 320
173 16
174 16
175 16
176 12
177 320
178 320
179 320
180 16
181 14
182 320
183 320
184 320
185 16
186 16
187 16
188 2
189 320
190 160
191 80
192 16
193 16
194 16
195 2
196 320
197 320
198 320
199 16
200 16
201 16
202 12
203 320
204 320
205 80
206 16
207 16
208 16
209 12
210 320
211 320
212 320
213 10
214 320
215 320
216 80
217 16
218 16
219 16
220 12
221 320
222 320
223 80
224 16
225 16
226 16
227 16
228 6
229 320
230 320
231 320
232 16
233 16
234 16
235 2
236 320
237 160
238 80
239 16
240 16
241 8
242 320
243 160
244 16
245 16
246 8
247 320
248 320
249 160
250 80
251 320
252 320
253 160
254 80
255 16
256 4
257 320
258 320
259 320
260 80
261 320
262 320
263 16
264 4
265 320
266 320
267 80
268 16
269 16
270 16
271 16
272 6
273 320
274 320
275 80
276 16
277 14
278 320
279 320
280 320
281 16
282 16
283 16
284 12
285 320
286 320
287 160
288 16
289 16
290 16
291 16
292 6
DEPOT_SECTION
1
-1
EOF