SDVRP instances/p01/p01_3070_tsplib0_splitx10_0.sol
291 -7 4 1 5 6 2 3 151 154 152 153 -10 8 11 9 120 121 117 119 118 116 92 -15 14 16 13 18 17 12 155 158 156 157 -22 19 255 253 251 250 252 254 -23 20 21 75 77 78 76 79 73 74 139 -25 26 24 70 69 -27 29 28 63 61 60 62 227 226 223 221 222 224 220 225 166 168 164 -37 35 33 34 36 31 30 32 275 274 272 276 -40 38 43 45 44 41 42 246 249 248 247 130 128 -48 46 47 50 49 52 51 173 170 171 174 172 175 169 -58 54 55 57 53 59 56 194 189 188 190 192 193 191 165 167 163 -67 65 68 64 66 176 180 -71 72 89 87 256 259 184 185 182 183 187 181 186 -82 83 81 80 138 140 142 141 -84 86 90 88 85 258 257 -94 93 91 285 287 288 289 290 284 286 291 213 -96 99 95 100 98 97 211 209 210 212 -102 103 101 264 269 267 268 271 270 266 265 -108 106 104 105 237 235 240 236 239 238 -110 107 109 231 233 228 230 229 232 234 243 245 244 241 242 -111 113 115 112 114 205 203 202 208 204 207 206 -124 123 122 125 178 177 179 -127 129 126 135 136 133 134 131 132 137 -144 146 149 147 148 143 145 150 39 273 -159 161 160 162 195 198 199 200 196 201 197 -218 216 217 219 214 215 281 278 277 279 283 280 282 -260 263 261 262 0 





OBJ=
1532.967
BEST_KNOWN=
0.000